num_atoms,user_label,total_energy,inferred_total_energy,stress_xx,stress_yy,stress_zz,stress_xy,stress_yz,stress_zx,inferred_stress_xx,inferred_stress_yy,inferred_stress_zz,inferred_stress_xy,inferred_stress_yz,inferred_stress_zx,cell_lattice_vectors_a,cell_lattice_vectors_b,cell_lattice_vectors_c
12,-,-347.81223,-121.69777,74.372475,73.61505,70.034294,0.0,-4.38372,0.0,171.75166,180.33585,149.94254,-0.0007366179,-7.2767844,9.071616e-05,[5.091732 0.       0.      ],[ 0.000000e+00  5.023922e+00 -7.948100e-05],[0.         0.85709256 5.1427774 ]
12,-,-347.6568,-121.40755,135.8412,134.45676,127.92448,0.0,-8.08666,0.0,231.50803,241.38077,203.83183,-0.001700722,-10.654452,-0.00061846955,[5.060935 0.       0.      ],[ 0.000000e+00  4.993535e+00 -7.900000e-05],[0.        0.8519085 5.111672 ]
